(declare-const rvalue_y (_ BitVec 32))
(declare-const lvalue_y (_ BitVec 32))
(declare-const rreturn (_ BitVec 32))
(declare-const lreturn (_ BitVec 32))
(assert (and (= rreturn rvalue_y) (= lreturn lvalue_y)))